qbf_easy_train/easy_1260_SAT.qdimacs
p cnf 26 67
a 18 12 6 0
e 1 2 3 4 5 7 8 9 10 11 13 14 15 16 17 19 20 21 22 23 24 25 26 0
-3 -1 0
-3 -2 0
1 2 3 0
5 -3 0
5 4 0
3 -4 -5 0
7 -1 0
7 -6 0
1 6 -7 0
-5 7 -8 0
5 -7 -8 0
-5 -7 8 0
5 7 8 0
-11 -9 0
-11 -10 0
9 10 11 0
-12 -10 -13 0
12 10 -13 0
-12 10 13 0
12 -10 13 0
14 -13 0
14 10 0
13 -10 -14 0
13 14 -15 0
-13 -14 -15 0
13 -14 15 0
-13 14 15 0
11 -15 -16 0
-11 15 -16 0
11 15 16 0
-11 -15 16 0
-17 3 0
-17 -4 0
-3 4 17 0
16 17 -18 0
-16 -17 -18 0
16 -17 18 0
-16 17 18 0
20 10 0
20 19 0
-10 -19 -20 0
-21 -4 0
-21 14 0
4 -14 21 0
-22 -20 0
-22 21 0
20 -21 22 0
-23 -18 0
-23 -22 0
18 22 23 0
-24 8 0
-24 23 0
-8 -23 24 0
-1 -4 -25 0
1 4 -25 0
-1 4 25 0
1 -4 25 0
26 24 0
26 -25 0
-24 25 -26 0
12 -20 -7 -2 -1 -17 0
-17 18 -7 -20 0
20 21 10 0
-24 -22 -13 12 -14 0
3 -21 -12 19 16 -8 -26 15 0
-19 -15 7 17 0
26 0
