sat_easy_train/easy_1260_SAT.dimacs
p cnf 149 512
3 -1 0
3 -2 0
1 2 -3 0
-6 4 0
-6 5 0
-4 -5 6 0
-8 -6 0
-8 7 0
6 -7 8 0
1 6 -10 0
-1 -6 -10 0
1 -6 10 0
-1 6 10 0
11 9 0
11 -10 0
-9 10 -11 0
8 11 -12 0
-8 -11 -12 0
8 -11 12 0
-8 11 12 0
14 -13 0
14 -1 0
13 1 -14 0
-15 -9 0
-15 -14 0
9 14 15 0
16 -13 -17 0
-16 13 -17 0
16 13 17 0
-16 -13 17 0
-18 -4 0
-18 1 0
4 -1 18 0
-19 17 0
-19 -18 0
-17 18 19 0
-20 9 0
-20 -18 0
-9 18 20 0
-19 -20 -21 0
19 20 -21 0
-19 20 21 0
19 -20 21 0
-22 15 0
-22 21 0
-15 -21 22 0
24 13 0
24 9 0
-13 -9 -24 0
25 24 0
25 -23 0
-24 23 -25 0
-26 -18 0
-26 25 0
18 -25 26 0
27 -1 0
27 26 0
1 -26 -27 0
28 23 0
28 27 0
-23 -27 -28 0
29 -22 0
29 -28 0
22 28 -29 0
31 25 0
31 -30 0
-25 30 -31 0
32 7 0
32 -13 0
-7 13 -32 0
-33 -31 0
-33 32 0
31 -32 33 0
-34 -30 0
-34 -18 0
30 18 34 0
35 2 0
35 -13 0
-2 13 -35 0
-34 35 -36 0
34 -35 -36 0
-34 -35 36 0
34 35 36 0
37 13 0
37 -27 0
-13 27 -37 0
-38 36 0
-38 37 0
-36 -37 38 0
39 -33 0
39 38 0
33 -38 -39 0
43 41 0
43 -42 0
-41 42 -43 0
-44 40 0
-44 -43 0
-40 43 44 0
-45 -37 0
-45 -44 0
37 44 45 0
46 -42 0
46 16 0
42 -16 -46 0
-47 46 0
-47 -32 0
-46 32 47 0
-47 25 -48 0
47 -25 -48 0
-47 -25 48 0
47 25 48 0
-45 48 -49 0
45 -48 -49 0
-45 -48 49 0
45 48 49 0
39 -49 -50 0
-39 49 -50 0
39 49 50 0
-39 -49 50 0
-51 18 -52 0
51 -18 -52 0
-51 -18 52 0
51 18 52 0
53 -2 0
53 -52 0
2 52 -53 0
-53 -26 -54 0
53 26 -54 0
-53 26 54 0
53 -26 54 0
7 30 -56 0
-7 -30 -56 0
7 -30 56 0
-7 30 56 0
-55 -56 -57 0
55 56 -57 0
-55 56 57 0
55 -56 57 0
-58 -54 0
-58 57 0
54 -57 58 0
59 -50 0
59 58 0
50 -58 -59 0
19 -40 -60 0
-19 40 -60 0
19 40 60 0
-19 -40 60 0
61 59 0
61 -60 0
-59 60 -61 0
-62 29 0
-62 -61 0
-29 61 62 0
63 42 0
63 42 0
-42 -63 0
-64 -43 0
-64 -52 0
43 52 64 0
65 64 0
65 56 0
-64 -56 -65 0
-66 42 0
-66 65 0
-42 -65 66 0
-67 -63 0
-67 66 0
63 -66 67 0
-68 -46 0
-68 -42 0
46 42 68 0
67 68 -69 0
-67 -68 -69 0
67 -68 69 0
-67 68 69 0
-63 46 -70 0
63 -46 -70 0
-63 -46 70 0
63 46 70 0
71 -42 0
71 -42 0
42 -71 0
72 -70 0
72 -71 0
70 71 -72 0
73 69 0
73 72 0
-69 -72 -73 0
-18 -40 -74 0
18 40 -74 0
-18 40 74 0
18 -40 74 0
-75 74 0
-75 63 0
-74 -63 75 0
-76 -75 0
-76 16 0
75 -16 76 0
76 -16 -77 0
-76 16 -77 0
76 16 77 0
-76 -16 77 0
-78 -73 0
-78 77 0
73 -77 78 0
62 -78 -79 0
-62 78 -79 0
62 78 79 0
-62 -78 79 0
80 12 0
80 79 0
-12 -79 -80 0
-81 -23 0
-81 -41 0
23 41 81 0
-82 41 0
-82 -76 0
-41 76 82 0
-81 -82 -83 0
81 82 -83 0
-81 82 83 0
81 -82 83 0
-84 46 0
-84 9 0
-46 -9 84 0
-85 83 0
-85 -84 0
-83 84 85 0
86 32 0
86 24 0
-32 -24 -86 0
-86 74 -87 0
86 -74 -87 0
-86 -74 87 0
86 74 87 0
-88 87 0
-88 64 0
-87 -64 88 0
44 42 -89 0
-44 -42 -89 0
44 -42 89 0
-44 42 89 0
90 -89 0
90 -53 0
89 53 -90 0
-91 88 0
-91 -90 0
-88 90 91 0
92 -85 0
92 91 0
85 -91 -92 0
-93 87 0
-93 -63 0
-87 63 93 0
94 92 0
94 93 0
-92 -93 -94 0
-95 -80 0
-95 -94 0
80 94 95 0
-96 -3 0
-96 -95 0
3 95 96 0
97 13 0
97 5 0
-13 -5 -97 0
-98 -2 0
-98 30 0
2 -30 98 0
-66 98 -99 0
66 -98 -99 0
-66 -98 99 0
66 98 99 0
-99 -86 -100 0
99 86 -100 0
-99 86 100 0
99 -86 100 0
101 -23 0
101 100 0
23 -100 -101 0
101 6 -102 0
-101 -6 -102 0
101 -6 102 0
-101 6 102 0
-24 36 -103 0
24 -36 -103 0
-24 -36 103 0
24 36 103 0
104 -64 0
104 45 0
64 -45 -104 0
-105 -75 -106 0
105 75 -106 0
-105 75 106 0
105 -75 106 0
-107 -106 0
-107 -27 0
106 27 107 0
-108 25 0
-108 43 0
-25 -43 108 0
109 108 0
109 -31 0
-108 31 -109 0
-110 107 0
-110 -109 0
-107 109 110 0
-104 110 -111 0
104 -110 -111 0
-104 -110 111 0
104 110 111 0
-112 82 0
-112 -10 0
-82 10 112 0
113 -111 0
113 -112 0
111 112 -113 0
114 -103 0
114 113 0
103 -113 -114 0
-115 -102 0
-115 -114 0
102 114 115 0
4 51 -116 0
-4 -51 -116 0
4 -51 116 0
-4 51 116 0
25 14 -117 0
-25 -14 -117 0
25 -14 117 0
-25 14 117 0
-118 117 0
-118 -75 0
-117 75 118 0
-42 43 -119 0
42 -43 -119 0
-42 -43 119 0
42 43 119 0
-118 119 -120 0
118 -119 -120 0
-118 -119 120 0
118 119 120 0
-121 116 0
-121 120 0
-116 -120 121 0
-115 -121 -122 0
115 121 -122 0
-115 121 122 0
115 -121 122 0
-123 -97 0
-123 122 0
97 -122 123 0
-124 -96 0
-124 123 0
96 -123 124 0
108 64 -125 0
-108 -64 -125 0
108 -64 125 0
-108 64 125 0
126 42 0
126 25 0
-42 -25 -126 0
127 6 0
127 76 0
-6 -76 -127 0
25 -127 -128 0
-25 127 -128 0
25 127 128 0
-25 -127 128 0
-126 128 -129 0
126 -128 -129 0
-126 -128 129 0
126 128 129 0
52 -32 -130 0
-52 32 -130 0
52 32 130 0
-52 -32 130 0
131 32 0
131 -43 0
-32 43 -131 0
-132 -131 0
-132 -24 0
131 24 132 0
-133 40 0
-133 14 0
-40 -14 133 0
133 -101 -134 0
-133 101 -134 0
133 101 134 0
-133 -101 134 0
-132 -134 -135 0
132 134 -135 0
-132 134 135 0
132 -134 135 0
-14 135 -136 0
14 -135 -136 0
-14 -135 136 0
14 135 136 0
130 -136 -137 0
-130 136 -137 0
130 136 137 0
-130 -136 137 0
-138 129 0
-138 137 0
-129 -137 138 0
-125 138 -139 0
125 -138 -139 0
-125 -138 139 0
125 138 139 0
98 -42 -140 0
-98 42 -140 0
98 42 140 0
-98 -42 140 0
-141 -33 0
-141 -19 0
33 19 141 0
-140 -141 -142 0
140 141 -142 0
-140 141 142 0
140 -141 142 0
143 -139 0
143 142 0
139 -142 -143 0
-144 -89 0
-144 10 0
89 -10 144 0
-145 -51 0
-145 144 0
51 -144 145 0
146 -23 0
146 -42 0
23 42 -146 0
-147 145 0
-147 146 0
-145 -146 147 0
-143 -147 -148 0
143 147 -148 0
-143 147 148 0
143 -147 148 0
-124 -148 -149 0
124 148 -149 0
-124 148 149 0
124 -148 149 0
-142 -14 18 64 92 0
44 -26 11 -105 -58 0
-53 -29 1 119 0
-3 51 92 0
52 -23 67 133 0
-67 -143 -95 -146 0
-58 76 138 57 40 0
26 72 -77 125 -29 129 0
-86 39 0
-81 -120 -102 0
-62 -12 0
-58 2 57 0
90 -100 41 0
57 59 56 0
32 -21 117 0
88 -15 -145 8 0
60 53 0
33 53 113 82 0
129 -34 -32 25 0
-10 -71 -49 79 0
-105 82 0
12 -128 79 11 0
-134 124 -35 -126 -115 65 0
90 80 -2 87 -32 0
-78 39 138 -11 0
-43 -127 128 -75 -148 141 0
-45 8 0
109 26 139 -53 0
-47 -15 133 73 131 -82 0
-30 -93 0
-62 85 77 148 -125 24 0
-74 -75 84 -61 -113 0
-72 49 -4 0
38 -18 0
-100 108 0
-26 -148 -130 66 0
-39 -50 0
12 -83 149 0
-107 126 55 0
-141 -122 -22 74 140 0
-43 29 -136 129 47 0
-7 -50 -141 -79 0
130 -75 29 -33 85 32 0
-19 145 0
102 -83 0
-133 76 -23 -105 103 0
72 -34 0
-68 127 119 -134 109 -64 0
-13 -30 -127 -119 0
12 -121 -23 44 0
86 47 71 0
81 139 25 20 0
-136 -106 -140 78 80 0
60 -84 97 73 -68 -105 0
-59 -81 116 0
18 -41 -131 0
-120 -111 -125 44 0
-53 -62 -132 74 0
-77 -9 -141 91 -81 0
-139 -97 -31 0
-146 -6 -45 -79 -149 0
-88 105 -1 0
96 58 -127 -103 0
-101 -58 0
-8 -120 -4 40 66 -33 0
84 31 107 137 -41 12 0
-67 -31 129 143 45 -61 0
149 0
